9999	21	97	60	14	23	12	46	58	12	57	97
96	9999	23	10	75	8	0	64	12	26	90	15
83	78	9999	5	19	74	94	52	41	88	40	96
48	27	72	9999	85	97	9	49	10	45	87	54
51	52	23	17	9999	39	94	55	22	12	34	75
50	23	69	83	83	9999	6	0	25	91	69	54
47	96	41	41	15	68	9999	32	52	31	44	49
91	33	16	79	75	44	62	9999	95	6	31	47
71	91	28	79	36	50	17	30	9999	43	4	55
59	34	67	88	24	72	29	58	33	9999	20	47
12	20	64	14	51	76	1	60	68	20	9999	85
86	21	7	36	32	54	75	20	41	83	24	9999
